Route #1: 83 21 42 34 74 88 139 105 102
Route #2: 71 124 36 57 53 95 49 14 110 39 41 144 47
Route #3: 11 7 104
Route #4: 87 149 89 66 145 129 64 69 84 16 143
Route #5: 131 1 82 58 33 146 130
Route #6: 23 109 111 65
Route #7: 6
Route #8: 123 40 147 90 63 37 112 26 115
Route #9: 8
Route #10: 45 73 121 75 113 136 60 9
Route #11: 29 86 79 38 55 93
Route #12: 2 142 128 117
Route #13: 141 99 28
Route #14: 24
Route #15: 17 138 54 77
Route #16: 5 92 80 134 68 52 44 48
Route #17: 15 150 61
Route #18: 98 135 103 25 101 67 125
Route #19: 30
Route #20: 148 50 85 81 72 20 78 62 32 35 106
Route #21: 120 13 114
Route #22: 27 107
Route #23: 76 18 97 118 151 43 56 127
Route #24: 4
Route #25: 132 3 59 122 51
Route #26: 10
Route #27: 108 46 133 126 91 19
Route #28: 94 140 31 119 70 116 12
Route #29: 152 100 137 22 96
Cost 35307
